NAME: rue_15_8
TYPE: TSP
DIMENSION: 15
EDGE_WEIGHT_TYPE: EUC_2D
NODE_COORD_SECTION
1 24 1
2 31 25
3 39 29
4 7 7
5 21 38
6 39 20
7 3 8
8 8 6
9 30 15
10 40 30
11 20 23
12 23 33
13 3 26
14 32 11
15 38 29

